73 96 10 1 55 40 11 33 36 85 99 90 17 50 86 48 2 0 26 83 82 74 22 46 56 57 30 13 34 16 88 20 93 52 35 38 28 7 62 92 3 77 32 65 8 24 84 43 69 66 54 4 68 78 76 53 12 97 9 89 21 39 23 59 80 51 60 31 37 44 27 45 79 25 5 15 87 70 47 94 61 95 98 41 81 72 19 64 49 71 63 6 58 18 91 67 75 42 14 29 

